dimension          2
units              lj
atom_style         rheo
boundary           f s p 
comm_modify        vel yes
newton off

## Particle Lattice/Resolution Parameters
variable           t_tot equal 3000
variable           sf equal 0.1 #/${L} #scaling of unit cell
variable           nb equal 1    #number of basis atoms depends on lattice
variable           n equal ${nb}/(${sf}^2)
variable           del equal ${sf}#*sqrt(2)
variable           hd equal 3.5
variable           h3 equal ${hd}*${del}
variable           dz equal 0.1*${sf}

# create simulation box

#checkpoint for undo

# read_restart       restart_adj_param.857143
###########################
### COMMENT FOR RESTART ###

region             box block -1 55 -1 20 -${dz} ${dz} units box
create_box         3 box
lattice            sq ${n}

region             left_wall block -1 0 EDGE EDGE -${dz} ${dz} units box
region             right_wall block 53.66 EDGE EDGE EDGE -${dz} ${dz} units box
region             bot_wall block 0.01 53.65 -1 0 -${dz} ${dz} units box
region             interior block 0.01 10 0.01 20 -${dz} ${dz} units box
# region             mid_wall block 10.01 11 0.01 30 -${dz} ${dz} units box
create_atoms       1 region interior
create_atoms       2 region left_wall
create_atoms       2 region right_wall
create_atoms       2 region bot_wall
# create_atoms       3 region mid_wall

group              fluid type 1
group              static_wall type 2
group              dyn_wall type 3
group              rig union static_wall dyn_wall


#Now randomly displace in x and y up %20 of their spacing (sf)
variable           seed equal 135414
variable           dr equal 0.1*${del}
#displace_atoms     fluid random ${dr} ${dr} 0 ${seed} units box

# Potential parameters eta = 1, cs = 0 so force gives laplacian
variable           rho0 equal 1.0
variable           mp equal ${rho0}/${n}
variable           cs equal 10
variable           zeta equal 1
variable           D equal 1.0
variable	       kappa equal ${D}*${rho0}/${mp}
variable           Dr equal 0.1*${h3}*${cs}
variable           g equal 0.0245 #acceleration due to gravity
variable           fext equal ${g}/${n}
#Viscosity parameters
variable           eta equal 0.05
#(for a Herschel-Bulkley fluid - special case: power law)
variable           gd0 equal 1e-2
variable           npow equal 0.5
variable           K equal ${eta}*${gd0}^(1-${npow})




# Set particle properties
mass               1 ${mp}
mass               2 ${mp}
mass               3 ${mp}

#Start at equilibrium pressure (density) given by hydrostatic force
variable           d0 atom (${rho0}*${g}*(20-y)/${cs}/${cs})+${rho0}
set                group all rho ${rho0}
set                group fluid rho v_d0

set                group all phase 0
set                group rig phase 5

set                group all temp 1.0


#Integration and Kernel
fix                1 all rheo ${h3} Quintic 32 shift # rhosum 1  shift
fix                2 all rheo/viscosity constant ${eta} 
#fix                2 all rheo/viscosity power ${eta} ${gd0} ${K} ${npow} 
fix                3 all rheo/surface ${h3} 26 2 usecoordination

fix                4 rig setforce 0.0 0.0 0.0
fix                5 fluid addforce 0.0 -${fext} 0.0
#fix                6 rig_dyn move linear 0.0 0.5 0.0 


pair_style         rheo ${h3} artificial/visc ${zeta} rho/damp ${Dr}  #pressure taitwater rho/damp ${Dr} 
pair_coeff         * * ${rho0} ${cs}

#Timestep
variable           dt_max equal  0.1*${h3}/${cs}/3 #CFL criterion
#variable           dt_max equal 0.125*${h3}*${h3}/${eta}/9 #Viscous criterion
#variable            dt_max equal 0.25*sqrt(${h3}/${fext}/${sf})
#variable           dt_max equal 0.1*${sf}/.01 
#variable           dx_max equal ${h3}/100
timestep           ${dt_max} 
#fix                dtr all dt/reset 1 NULL ${dt_max} ${dx_max}  units box
variable           Nsteps equal round(${t_tot}/${dt_max})

compute            den all property/atom rho
compute            phase all property/atom phase
compute            eta all property/atom viscosity
compute            surf all property/atom surface

thermo             2000
thermo_style       custom step time etotal temp press

thermo_modify      norm no
dump               1 all custom 2000 dam_break_data/dump/0_5_10.atoms id type x y vx vy fx fy c_den c_phase c_eta c_surf f_3[*]
dump               2 all netcdf 2000 dam_break_data/ncdf/0_5_10.nc id type x y z vx vy vz fx fy c_den c_phase c_eta c_surf f_3[1] f_3[2]
variable           skin equal 0.2*${h3}
neighbor           ${skin} bin
neigh_modify       one 5000

comm_style          tiled
fix                 7 all balance 1000 1.1 rcb

run                400000
# write_restart      restarts/test.*.restart

