dimension          2
units              lj
atom_style         rheo
boundary           p f p 
comm_modify        vel yes
newton off

## Particle Lattice/Resolution Parameters
variable           L equal 10
variable           t_tot equal 3400
variable           sf equal 0.2 #/${L} #scaling of unit cell
variable           nb equal 1    #number of basis atoms depends on lattice
variable           n equal ${nb}/(${sf}^2)
variable           del equal ${sf}#*sqrt(2)
variable           hd equal 3.5
variable           h3 equal ${hd}*${del}
variable           dz equal 0.1*${sf}

# create simulation box

# read_restart       restart_adj_param.857143
###########################
### COMMENT FOR RESTART ###
region             box block 0 20 -10 10 -${dz} ${dz} units box
create_box         2 box
lattice            sq ${n}

#region             block cylinder z 10 -4.8 4 -${dz} ${dz} units b
region             topwall block INF INF  7 10 -${dz} ${dz} units box
region             block   block INF INF -6.99 6.99 -${dz} ${dz} units box
region             botwall block INF INF -10 -7 -${dz} ${dz} units box

create_atoms       2 region topwall
create_atoms       2 region botwall
create_atoms       1 region block

group              fluid type 1
group              rig type 2

#Now randomly displace in x and y up %20 of their spacing (sf)
variable           seed equal 135414
variable           dr equal 0.1*${del}
displace_atoms     fluid random ${dr} ${dr} 0 ${seed} units box
### COMMENT FOR RESTART ###
###########################

# Potential parameters eta = 1, cs = 0 so force gives laplacian
variable           rho0 equal 1.0
variable           mp equal ${rho0}/${n}
variable           cs equal 1
variable           zeta equal 1 
variable           D equal 1.0
variable	       kappa equal ${D}*${rho0}/${mp}
variable           fext equal 1e-5/${n}
#Viscosity parameters
variable           eta equal 0.01 #1 becomes fully developed faster than 0.1; gives better profile
#(for a Herschel-Bulkley fluid - special case: power law)
variable           gd0 equal 1e-2
variable           npow equal 0.5
variable           K equal ${eta}*${gd0}^(1-${npow})


# Set particle properties
mass               1 ${mp}
mass               2 ${mp}
set                group all rho ${rho0}
set                group all phase 0
set                group rig phase 4
set                group all temp 1.0

#velocity           fluid set 0.0 -1 0.0 units box


#Integration and Kernel
fix                1 all rheo ${h3} CRK0 0 shift # rhosum 1
fix                2 all rheo/viscosity constant ${eta} 
#fix                3 all rheo/surface ${h3} 1.5 10

fix                4 rig setforce 0.0 0.0 0.0
fix                5 fluid addforce ${fext} 0.0 0.0

variable           Dr equal 0.05*${h3}*${cs}
pair_style         rheo ${h3} artificial/visc ${zeta} rho/damp ${Dr}  #pressure taitwater rho/damp ${Dr} 
pair_coeff         * * ${rho0} ${cs}

#Timestep
variable           dt_max equal  0.1*${h3}/${cs}/3 
#variable           dt_max equal 0.125*${h3}*${h3}/${eta}/9 #Viscous criterion
#variable           dt_max equal 0.1*${sf}/.01 
#variable           dx_max equal ${h3}/100
timestep           ${dt_max} 
#fix                dtr all dt/reset 1 NULL ${dt_max} ${dx_max}  units box
variable           Nsteps equal round(${t_tot}/${dt_max})

compute            den all property/atom rho
compute            phase all property/atom phase
compute            eta all property/atom viscosity

thermo             200
thermo_style       custom step time etotal temp press

thermo_modify      norm no
dump               1 all custom 500 ncdf/0_0_5_3p5_p01_1e-5.atoms id type x y vx vy fx fy c_den c_phase c_eta #f_rheo_chi_chi
dump               2 all netcdf 500 ncdf/0_0_5_3p5_p01_1e-5.nc id type x y z vx vy vz fx fy c_den c_phase c_eta #f_rheo_chi_chi
variable           skin equal 0.2*${h3}
neighbor           ${skin} bin
neigh_modify       one 5000
run                ${Nsteps}
#write_restart      restart_adj_param.*

