`atom_style         rheo
dimension          2
boundary           p p p
units              lj

region             box block 0 100 -5 200 -0.5 0.5
lattice            sq 1.0
create_box         2 box

create_atoms       1 region box

region             box1 block 5 95 5.0 150 -0.5 0.5
group              fluid region box1

region             box2 block 5 95 150 200 -0.5 0.5
delete_atoms       region box2

region             box3 block 5 95 5.0 200 -0.5 0.5 side out
group              walls region box3
set                group walls type 2

comm_modify        vel yes

variable	       rho0 equal 1.0
variable           n equal 1.0
variable           mp equal ${rho0}/${n}
variable           h3 equal 3.0
variable           cs equal 1.0
variable           zeta equal 1.0
variable           eta equal 0.1
variable           D equal 0.05
variable	   kappa equal ${D}*${rho0}/${mp}

mass               1 ${mp}
mass               2 ${mp}
displace_atoms     fluid random 0.1 0.1 0.0 8134180
set                group all rho ${rho0}
set                group fluid temp 0.5
set                group walls temp 0.0

pair_style         hybrid/overlay rheo ${h3} artificial/visc ${zeta} rho/damp 0.5 rheo/freeze thermal/expand
pair_coeff         * * rheo ${rho0} ${cs}
pair_coeff         * * rheo/freeze ${h3} 2.0 2.0 1.0 0.05 1.0 1.0 0.05 0.25 0.01

fix               1 all rheo ${h3} Quintic 5 thermal shift
fix               2 all rheo/viscosity  aluminum ${eta} 10.0 10.0 1.0 0.25
fix               3 all enforce2d
fix               4 walls setforce 0.0 0.0 0.0
fix               5 all rheo/thermal conductivity constant ${kappa} cv type 1.0 100.0 Tfreeze constant 0.25 
fix               6 fluid addforce 0.0 -5e-5 0
fix               7 all rheo/vshift ${h3}

timestep 0.1
thermo             100
thermo_style       custom step dt time ke pe press  


compute            phase all property/atom phase
compute            rho all property/atom rho
compute            temp all property/atom temp
compute            nbond all property/atom i_rheo_freeze_nbond
dump               mydump all custom 500 dump/dump.* id type x y z c_rho c_phase c_nbond c_temp f_rheo_chi_chi fx fy


run     50000 
