dimension          2
units              lj
atom_style         rheo
boundary           p f p 
comm_modify        vel yes
newton off

variable           filename string "1_1_2_0p5_2e-4"

## Particle Lattice/Resolution Parameters
variable           t_tot equal 4470
variable           sf equal 0.5 #/${L} #scaling of unit cell
variable           nb equal 1    #number of basis atoms depends on lattice
variable           n equal ${nb}/(${sf}^2)
variable           del equal ${sf}#*sqrt(2)
variable           hd equal 3
variable           h3 equal ${hd}*${del}
variable           dz equal 0.1*${sf}

#Geometric parameters
variable           wall_thickness equal 3.5*${sf}
variable           H equal 5 #channel half-width
variable           box_half_width equal (${H}+${wall_thickness})        

# create simulation box
region             box block 0 5 -${box_half_width} ${box_half_width} -${dz} ${dz} units box
create_box         2 box
lattice            sq ${n}
create_atoms       2 region box

region             topwall block INF INF ${H} EDGE -${dz} ${dz} units box
region             block   block INF INF -${H} ${H} -${dz} ${dz} units box
region             botwall block INF INF EDGE -${H} -${dz} ${dz} units box

set                region block type 1

group              fluid type 1
group              rig type 2



#Now randomly displace in x and y up %20 of their spacing (sf)
variable           seed equal 135414
variable           dr equal 0.1*${del}
displace_atoms     fluid random ${dr} ${dr} 0 ${seed} units box
### COMMENT FOR RESTART ###
###########################

variable           rho0 equal 1.0
variable           mp equal ${rho0}/${n}
variable           cs equal 2
variable           zeta equal 1 
variable           D equal 1.0
variable	       kappa equal 1.0
variable           dp_dx equal -2e-4
variable           a equal -${dp_dx}/${rho0}
variable           fext equal ${a}/${n} #acceleration * mass
#Viscosity parameters
variable           y0 equal 0.1
variable           tau0 equal ${y0}*${a}
variable           eta equal 0.5
variable           gd0 equal 5e-4
variable           npow equal 0.5
variable           K equal (${eta}*${gd0}-${tau0})/(${gd0}^${npow})




# Set particle properties
mass               1 ${mp}
mass               2 ${mp}
set                group all rho ${rho0}
set                group all phase 0
set                group rig phase 5
set                group all temp 1.0


#Integration and Kernel
fix                1 all rheo ${h3} CRK1 0 shift # rhosum 1
fix                2 all rheo/viscosity power ${eta} ${gd0} ${K} ${npow} 

fix                4 rig setforce 0.0 0.0 0.0
fix                5 fluid addforce ${fext} 0.0 0.0

variable           Dr equal 0.1*${h3}*${cs}
pair_style         rheo ${h3} artificial/visc ${zeta} rho/damp ${Dr}  #pressure taitwater rho/damp ${Dr} 
pair_coeff         * * ${rho0} ${cs}

#Timestep
variable           dt_max equal  0.1*${h3}/${cs}/3 #CFL criterion
#variable           dt_max equal 0.125*${h3}*${h3}/${eta}/9 #Viscous criterion
#variable           dt_max equal 0.1*${sf}/.01 
#variable           dx_max equal ${h3}/100
timestep           ${dt_max} 
#fix                dtr all dt/reset 1 NULL ${dt_max} ${dx_max}  units box
variable           Nsteps equal round(${t_tot}/${dt_max})

compute            den all property/atom rho
compute            phase all property/atom phase
compute            eta all property/atom viscosity

thermo             2500
thermo_style       custom step time etotal temp press

thermo_modify      norm no
dump               1 all custom 500 data/dump/${filename}.atoms id type x y vx vy fx fy c_den c_phase c_eta f_rheo_grad_gradv[*]
dump               2 all netcdf 500 data/ncdf/${filename}.nc id type x y vx vy fx fy c_den c_phase c_eta f_rheo_grad_gradv[1] f_rheo_grad_gradv[2] f_rheo_grad_gradv[3] f_rheo_grad_gradv[4]
variable           skin equal 0.2*${h3}
neighbor           ${skin} bin
neigh_modify       one 5000
run                ${Nsteps}
