####################################################
## RHEO wall-debug branch, 3/28/2022              ##
## Create initial conditions for poiseuille inlet ##
####################################################

dimension          2
units              lj
atom_style         rheo
boundary           p p p 
comm_modify        vel yes
newton off

############################################
## Re Parameters ##
############################################
variable           D equal 8  #cylinder diameter
variable           L_x equal ${D}*9*2
variable           L_x_half equal ${L_x}/2
variable           L_y_half equal 6*${D}/2 
variable           R equal ${D}/2 

variable           sf equal 0.5 #/${L} #scaling of unit cell


############################################
## Particle Lattice/Resolution Parameters ##
############################################

variable           nb equal 1    #number of basis atoms depends on lattice
variable           n equal ${nb}/(${sf}^2)
variable           del equal ${sf}#*sqrt(2)
variable           hd equal 3.0
variable           h3 equal ${hd}*${del}
variable           dz equal 0.1*${sf}

############################################
##              Create box                ##
############################################

region             box block 0 ${L_x} -${L_y_half} ${L_y_half} -${dz} ${dz} units box
create_box         2 box
lattice            sq ${n}
create_atoms       1 box
group              fluid type 1
region             hollow cylinder z ${L_x_half} 0 ${R} -${dz} ${dz} units box


#Now randomly displace in x and y up %20 of their spacing (sf)
variable           seed equal 135414
variable           dr equal 0.1*${del}
#displace_atoms     fluid random ${dr} ${dr} 0 ${seed} units box

############################################
##         Potential parameters           ##
############################################

variable           rho0 equal 1.0
variable           mp equal ${rho0}/${n}
variable           cs equal 1
variable           zeta equal 1 
variable           D equal 1.0
variable	       kappa equal ${D}*${rho0}/${mp}
variable           eta equal 2 

variable           Dr equal 0.1*${h3}*${cs}
pair_style         rheo ${h3} artificial/visc ${zeta} rho/damp ${Dr}
pair_coeff         * * ${rho0} ${cs}

############################################
##         Particle Properties            ##
############################################

mass               1 ${mp}
mass               2 ${mp}

set                group all rho ${rho0}
set                group all phase 0
#set                group rig phase 5
set                group all temp 1.0

#Apply some random velocity to 'melt' fluid
# velocity           fluid create 0.001 253443

############################################
##         Integration and fixes          ##
############################################

fix                1 all rheo ${h3} CRK1 0 shift
fix                2 all rheo/viscosity constant ${eta} 
#fix                3 rig setforce 0.0 0.0 0.0

#CFL criterion
variable           dt_max equal  0.1*${h3}/${cs}/3 
timestep           ${dt_max} 

variable           skin equal 0.2*${h3}
neighbor           ${skin} bin
neigh_modify       one 5000

############################################
##            Output and run              ##
############################################

compute            den all property/atom rho
compute            phase all property/atom phase
compute            eta all property/atom viscosity

#dump               1 all custom 1000 data_inital_kunz.atoms id type x y vx vy fx fy c_den c_phase

thermo             1000
thermo_style       custom step time ke press
thermo_modify      norm no

run                2000

write_data         inlet_data/sf2_ordered.data nofix #fluid strip for inlet fix
delete_atoms       region hollow
write_data         initial_data/sf2_ordered.data nofix #fluid strip w hollow cylinder for initial state
